2103827614254888970506,13,1,2,05,10,1,2,011,5,1,2,05,1,1,2,01,11,1,2,03,11,1,2,014,6,1,2,010,4,1,2,03,10,1,2,01,11,1,2,02,8,1,2,015,14,1,2,08,13,1,2,015,1,1,2,02,4,1,2,015,3,1,2,010,13,1,2,010,3,1,2,09,9,1,2,05,4,1,2,03,13,1,2,02,10,1,2,09,12,1,2,010,10,1,2,05,12,1,2,01,8,1,2,06,13,1,2,08,5,1,2,014,8,1,2,05,2,1,2,02,13,1,2,013,3,1,2,02,6,1,2,015,3,1,2,08,12,1,2,06,3,1,2,010,9,1,2,03,12,1,2,010,1,1,2,06,5,1,2,013,1,1,2,04,5,1,2,011,8,1,2,05,8,1,2,02,12,1,2,03,15,1,2,08,11,1,2,05,7,1,2,010,7,1,2,08,8,1,2,0